Welcome to the CBC MILP Solver 
Version: 2.8.9 
Build Date: Nov 24 2015 

command line - /vol/cc/opt/maxeler/maxcompiler-2015.2/bin/cbc fully_connected11_schedule_C.mps.gz -threads 4 -solve -printi csv -solu fully_connected11_schedule_C.csv (default strategy 1)
At line 1 NAME           CxSchedule
At line 2 ROWS
At line 581 COLUMNS
At line 1423 RHS
At line 1713 BOUNDS
At line 2131 ENDATA
Problem CxSchedule has 577 rows, 417 columns and 1440 elements
Coin0008I CxSchedule read with 0 errors
threads was changed from 0 to 4
Continuous objective value is 942 - 0.01 seconds
Cgl0003I 0 fixed, 570 tightened bounds, 0 strengthened rows, 0 substitutions
Cgl0003I 0 fixed, 355 tightened bounds, 0 strengthened rows, 0 substitutions
Cgl0003I 0 fixed, 344 tightened bounds, 0 strengthened rows, 0 substitutions
Cgl0003I 0 fixed, 251 tightened bounds, 0 strengthened rows, 0 substitutions
Cgl0003I 0 fixed, 123 tightened bounds, 0 strengthened rows, 0 substitutions
Cgl0003I 0 fixed, 33 tightened bounds, 0 strengthened rows, 0 substitutions
Cgl0004I processed model has 577 rows, 414 columns (414 integer) and 1440 elements
Cutoff increment increased from 1e-05 to 0.9999
Cbc0012I Integer solution of 942 found by DiveCoefficient after 0 iterations and 0 nodes (0.03 seconds)
Cbc0030I Thread 0 used 0 times,  waiting to start 0.0029768944, 0 cpu time, 0 locks, 0 locked, 0 waiting for locks
Cbc0030I Thread 1 used 0 times,  waiting to start 0.00258708, 0 cpu time, 0 locks, 0 locked, 0 waiting for locks
Cbc0030I Thread 2 used 0 times,  waiting to start 0.0019683838, 0 cpu time, 0 locks, 0 locked, 0 waiting for locks
Cbc0030I Thread 3 used 0 times,  waiting to start 0.001390934, 0 cpu time, 0 locks, 0 locked, 0 waiting for locks
Cbc0030I Main thread 0 waiting for threads,  1 locks, 5.9604645e-06 locked, 0 waiting for locks
Cbc0001I Search completed - best objective 942, took 0 iterations and 0 nodes (0.03 seconds)
Cbc0035I Maximum depth 0, 0 variables fixed on reduced cost
Cuts at root node changed objective from 942 to 942
Probing was tried 0 times and created 0 cuts of which 0 were active after adding rounds of cuts (0.000 seconds)
Gomory was tried 0 times and created 0 cuts of which 0 were active after adding rounds of cuts (0.000 seconds)
Knapsack was tried 0 times and created 0 cuts of which 0 were active after adding rounds of cuts (0.000 seconds)
Clique was tried 0 times and created 0 cuts of which 0 were active after adding rounds of cuts (0.000 seconds)
MixedIntegerRounding2 was tried 0 times and created 0 cuts of which 0 were active after adding rounds of cuts (0.000 seconds)
FlowCover was tried 0 times and created 0 cuts of which 0 were active after adding rounds of cuts (0.000 seconds)
TwoMirCuts was tried 0 times and created 0 cuts of which 0 were active after adding rounds of cuts (0.000 seconds)

Result - Optimal solution found

Objective value:                942.00000000
Enumerated nodes:               0
Total iterations:               0
Time (CPU seconds):             0.04
Time (Wallclock seconds):       0.05

Option for printingOptions changed from normal to csv
Total time (CPU seconds):       0.04   (Wallclock seconds):       0.05

